proyfinal/src/viki/013/experimentInOfficeAgust.take6.output/5bed8d91-13bb-4460-8117-152d312a7f2b.als.dat
{'cnf.clauses': '118081',
 'cnf.totvars': '69608',
 'conflict literals': '58',
 'conflicts': '23',
 'decisions': '4520',
 'memused.mb': '15.38',
 'outcome': 'UNSAT',
 'propagations': '25843',
 'restarts': '1',
 'solver.msecs': 34,
 'task.msecs': 82}
