proyfinal/src/viki/013/experimentInOfficeAgust.take6.output/5bed8d91-13bb-4460-8117-152d312a7f2b.als.out
Reading from standard input... Use '--help' for help.
============================[ Problem Statistics ]=============================
|                                                                             |
|  Number of variables:         69608                                         |
|  Number of clauses:          118081                                         |
|  Parse time:                   0.02 s                                       |
|                                                                             |
============================[ Search Statistics ]==============================
| Conflicts |          ORIGINAL         |          LEARNT          | Progress |
|           |    Vars  Clauses Literals |    Limit  Clauses Lit/Cl |          |
===============================================================================
===============================================================================
restarts              : 1
conflicts             : 23             (674 /sec)
decisions             : 4520           (0.00 % random) (132547 /sec)
propagations          : 25843          (757837 /sec)
conflict literals     : 58             (0.00 % deleted)
Memory used           : 15.38 MB
CPU time              : 0.034101 s

UNSATISFIABLE
